(set-info :source |printed by MathSAT|)
(declare-fun |.x{629}| () Int)
(declare-fun |.x{1029}| () Int)
(declare-fun |.x{654}| () (Array Int Int))
(declare-fun |.x{1030}| () (Array Int Int))
(declare-fun |.x{631}| () (Array Int Int))
(declare-fun |.x{1031}| () (Array Int Int))
(declare-fun |.x{632}| () (Array Int (Array Int Int)))
(declare-fun |.x{1032}| () (Array Int (Array Int Int)))
(declare-fun |.x{633}| () (Array Int (Array Int Int)))
(declare-fun |.x{1033}| () (Array Int (Array Int Int)))
(declare-fun |.x{634}| () Int)
(declare-fun |.x{1034}| () Int)
(declare-fun |.x{635}| () Int)
(declare-fun |.x{1035}| () Int)
(declare-fun |.x{636}| () (Array Int Int))
(declare-fun |.x{1036}| () (Array Int Int))
(declare-fun |.x{637}| () (Array Int Int))
(declare-fun |.x{1037}| () (Array Int Int))
(declare-fun |.x{638}| () Int)
(declare-fun |.x{1038}| () Int)
(declare-fun |.x{639}| () Int)
(declare-fun |.x{1039}| () Int)
(declare-fun |.x{664}| () Int)
(declare-fun |.x{1040}| () Int)
(declare-fun |.x{641}| () Int)
(declare-fun |.x{1041}| () Int)
(declare-fun |.x{642}| () Bool)
(declare-fun |.x{1042}| () Bool)
(declare-fun |.x{643}| () Int)
(declare-fun |.x{1043}| () Int)
(declare-fun |.x{644}| () Int)
(declare-fun |.x{1044}| () Int)
(declare-fun |.x{645}| () Int)
(declare-fun |.x{1045}| () Int)
(declare-fun |.x{646}| () Int)
(declare-fun |.x{1046}| () Int)
(declare-fun |.x{647}| () Int)
(declare-fun |.x{1047}| () Int)
(declare-fun |.x{672}| () Int)
(declare-fun |.x{1048}| () Int)
(declare-fun |.x{649}| () Int)
(declare-fun |.x{1049}| () Int)
(declare-fun |.x{650}| () Int)
(declare-fun |.x{1050}| () Int)
(declare-fun |.x{651}| () Int)
(declare-fun |.x{1051}| () Int)
(declare-fun |.x{652}| () Bool)
(declare-fun |.x{1052}| () Bool)
(declare-fun |.loc{5}| () Bool)
(declare-fun |.loc{9}| () Bool)
(declare-fun |.loc{6}| () Bool)
(declare-fun |.loc{10}| () Bool)
(declare-fun |.loc{7}| () Bool)
(declare-fun |.loc{11}| () Bool)
(declare-fun |.loc{8}| () Bool)
(declare-fun |.loc{12}| () Bool)
(declare-fun |.x{95}| () (Array Int Int))
(declare-fun |.x{807}| () Bool)
(define-fun .def_58 () Bool (! |.loc{6}| :next |.loc{10}|))
(define-fun .def_99 () Bool (not .def_58))
(define-fun .def_56 () Bool (! |.loc{5}| :next |.loc{9}|))
(define-fun .def_97 () Bool (not .def_56))
(define-fun .def_538 () Bool (and .def_97 .def_99))
(define-fun .def_60 () Bool (! |.loc{7}| :next |.loc{11}|))
(define-fun .def_101 () Bool (not .def_60))
(define-fun .def_539 () Bool (and .def_101 .def_538))
(define-fun .def_62 () Bool (! |.loc{8}| :next |.loc{12}|))
(define-fun .def_110 () Bool (not .def_62))
(define-fun .def_540 () Bool (and .def_110 .def_539))
(define-fun .def_54 () Bool (! |.x{652}| :next |.x{1052}|))
(define-fun .def_532 () Bool (not .def_54))
(define-fun .def_16 () (Array Int (Array Int Int)) (! |.x{633}| :next |.x{1033}|))
(define-fun .def_14 () (Array Int (Array Int Int)) (! |.x{632}| :next |.x{1032}|))
(define-fun .def_531 () Bool (= .def_14 .def_16))
(define-fun .def_533 () Bool (and .def_531 .def_532))
(define-fun .def_28 () Int (! |.x{639}| :next |.x{1039}|))
(define-fun .def_26 () Int (! |.x{638}| :next |.x{1038}|))
(define-fun .def_530 () Bool (= .def_26 .def_28))
(define-fun .def_534 () Bool (and .def_530 .def_533))
(define-fun .def_20 () Int (! |.x{635}| :next |.x{1035}|))
(define-fun .def_18 () Int (! |.x{634}| :next |.x{1034}|))
(define-fun .def_529 () Bool (= .def_18 .def_20))
(define-fun .def_535 () Bool (and .def_529 .def_534))
(define-fun .def_24 () (Array Int Int) (! |.x{637}| :next |.x{1037}|))
(define-fun .def_22 () (Array Int Int) (! |.x{636}| :next |.x{1036}|))
(define-fun .def_528 () Bool (= .def_22 .def_24))
(define-fun .def_536 () Bool (and .def_528 .def_535))
(define-fun .def_12 () (Array Int Int) (! |.x{631}| :next |.x{1031}|))
(define-fun .def_10 () (Array Int Int) (! |.x{654}| :next |.x{1030}|))
(define-fun .def_527 () Bool (= .def_10 .def_12))
(define-fun .def_537 () Bool (and .def_527 .def_536))
(define-fun .def_541 () Bool (! (and .def_537 .def_540) :init true))
(define-fun .def_524 () Bool (= .def_28 |.x{1039}|))
(define-fun .def_522 () Bool (= .def_24 |.x{1037}|))
(define-fun .def_520 () Bool (= .def_20 |.x{1035}|))
(define-fun .def_518 () Bool (= .def_16 |.x{1033}|))
(define-fun .def_8 () Int (! |.x{629}| :next |.x{1029}|))
(define-fun .def_516 () Bool (= .def_8 |.x{1029}|))
(define-fun .def_515 () Bool (= .def_12 |.x{1031}|))
(define-fun .def_517 () Bool (and .def_515 .def_516))
(define-fun .def_519 () Bool (and .def_517 .def_518))
(define-fun .def_521 () Bool (and .def_519 .def_520))
(define-fun .def_523 () Bool (and .def_521 .def_522))
(define-fun .def_525 () Bool (and .def_523 .def_524))
(define-fun .def_484 () Bool (= |.x{1045}| |.x{1050}|))
(define-fun .def_485 () Bool (or |.x{1052}| .def_484))
(define-fun .def_30 () Int (! |.x{664}| :next |.x{1040}|))
(define-fun .def_478 () (Array Int Int) (store .def_10 .def_30 0))
(define-fun .def_479 () Bool (= |.x{1030}| .def_478))
(define-fun .def_480 () Bool (or .def_54 .def_479))
(define-fun .def_476 () Bool (and .def_62 .def_97))
(define-fun .def_477 () Bool (and .def_99 .def_476))
(define-fun .def_481 () Bool (and .def_477 .def_480))
(define-fun .def_482 () Bool (and .def_101 .def_481))
(define-fun .def_120 () Bool (= .def_54 |.x{1052}|))
(define-fun .def_483 () Bool (and .def_120 .def_482))
(define-fun .def_486 () Bool (and .def_483 .def_485))
(define-fun .def_129 () Bool (and .def_56 .def_58))
(define-fun .def_130 () Bool (and .def_60 .def_129))
(define-fun .def_470 () Bool (and .def_110 .def_130))
(define-fun .def_50 () Int (! |.x{650}| :next |.x{1050}|))
(define-fun .def_114 () Bool (= .def_50 |.x{1050}|))
(define-fun .def_471 () Bool (and .def_114 .def_470))
(define-fun .def_46 () Int (! |.x{672}| :next |.x{1048}|))
(define-fun .def_139 () Bool (= .def_46 |.x{1048}|))
(define-fun .def_472 () Bool (and .def_139 .def_471))
(define-fun .def_141 () Bool (= .def_30 |.x{1040}|))
(define-fun .def_473 () Bool (and .def_141 .def_472))
(define-fun .def_143 () Bool (= .def_10 |.x{1030}|))
(define-fun .def_474 () Bool (and .def_143 .def_473))
(define-fun .def_475 () Bool (and |.x{1052}| .def_474))
(define-fun .def_487 () Bool (or .def_475 .def_486))
(define-fun .def_488 () Bool (and |.loc{12}| .def_487))
(define-fun .def_489 () Bool (and |.loc{12}| .def_488))
(define-fun .def_108 () Bool (not |.loc{10}|))
(define-fun .def_490 () Bool (and .def_108 .def_489))
(define-fun .def_112 () Bool (not |.loc{11}|))
(define-fun .def_491 () Bool (and .def_112 .def_490))
(define-fun .def_38 () Int (! |.x{644}| :next |.x{1044}|))
(define-fun .def_181 () Bool (= .def_38 0))
(define-fun .def_463 () Bool (or .def_54 .def_181))
(define-fun .def_160 () Bool (and .def_58 .def_60))
(define-fun .def_161 () Bool (and .def_97 .def_160))
(define-fun .def_103 () Bool (not |.loc{12}|))
(define-fun .def_162 () Bool (and .def_103 .def_161))
(define-fun .def_460 () Bool (and |.loc{10}| .def_162))
(define-fun .def_461 () Bool (and |.loc{11}| .def_460))
(define-fun .def_462 () Bool (and .def_110 .def_461))
(define-fun .def_464 () Bool (and .def_462 .def_463))
(define-fun .def_465 () Bool (and .def_114 .def_464))
(define-fun .def_466 () Bool (and .def_139 .def_465))
(define-fun .def_467 () Bool (and .def_141 .def_466))
(define-fun .def_468 () Bool (and .def_143 .def_467))
(define-fun .def_469 () Bool (and .def_120 .def_468))
(define-fun .def_492 () Bool (or .def_469 .def_491))
(define-fun .def_493 () Bool (and |.loc{9}| .def_492))
(define-fun .def_116 () Bool (= .def_38 |.x{1044}|))
(define-fun .def_494 () Bool (and .def_116 .def_493))
(define-fun .def_48 () Int (! |.x{649}| :next |.x{1049}|))
(define-fun .def_118 () Bool (= .def_48 |.x{1049}|))
(define-fun .def_495 () Bool (and .def_118 .def_494))
(define-fun .def_34 () Bool (! |.x{642}| :next |.x{1042}|))
(define-fun .def_450 () Int (ite .def_34 1 0))
(define-fun .def_451 () Bool (= |.x{1049}| .def_450))
(define-fun .def_449 () Bool (= |.x{1044}| |.x{1049}|))
(define-fun .def_452 () Bool (and .def_449 .def_451))
(define-fun .def_453 () Bool (or .def_54 .def_452))
(define-fun .def_442 () Bool (and .def_56 .def_60))
(define-fun .def_241 () Bool (not |.loc{9}|))
(define-fun .def_443 () Bool (and .def_241 .def_442))
(define-fun .def_444 () Bool (and .def_99 .def_443))
(define-fun .def_445 () Bool (and .def_103 .def_444))
(define-fun .def_446 () Bool (and |.loc{10}| .def_445))
(define-fun .def_447 () Bool (and |.loc{11}| .def_446))
(define-fun .def_448 () Bool (and .def_110 .def_447))
(define-fun .def_454 () Bool (and .def_448 .def_453))
(define-fun .def_455 () Bool (and .def_114 .def_454))
(define-fun .def_456 () Bool (and .def_139 .def_455))
(define-fun .def_457 () Bool (and .def_141 .def_456))
(define-fun .def_458 () Bool (and .def_143 .def_457))
(define-fun .def_459 () Bool (and .def_120 .def_458))
(define-fun .def_496 () Bool (or .def_459 .def_495))
(define-fun .def_427 () Bool (and .def_54 .def_60))
(define-fun .def_428 () Bool (and .def_97 .def_427))
(define-fun .def_429 () Bool (and .def_241 .def_428))
(define-fun .def_430 () Bool (and .def_99 .def_429))
(define-fun .def_431 () Bool (and |.loc{12}| .def_430))
(define-fun .def_432 () Bool (and .def_108 .def_431))
(define-fun .def_433 () Bool (and .def_110 .def_432))
(define-fun .def_434 () Bool (and .def_112 .def_433))
(define-fun .def_435 () Bool (and .def_114 .def_434))
(define-fun .def_436 () Bool (and .def_139 .def_435))
(define-fun .def_437 () Bool (and .def_141 .def_436))
(define-fun .def_438 () Bool (and .def_143 .def_437))
(define-fun .def_439 () Bool (and .def_116 .def_438))
(define-fun .def_440 () Bool (and .def_118 .def_439))
(define-fun .def_441 () Bool (and .def_120 .def_440))
(define-fun .def_497 () Bool (or .def_441 .def_496))
(define-fun .def_412 () Bool (and .def_60 .def_97))
(define-fun .def_413 () Bool (and .def_241 .def_412))
(define-fun .def_414 () Bool (and .def_99 .def_413))
(define-fun .def_415 () Bool (and |.loc{12}| .def_414))
(define-fun .def_416 () Bool (and .def_108 .def_415))
(define-fun .def_417 () Bool (and .def_110 .def_416))
(define-fun .def_418 () Bool (and .def_112 .def_417))
(define-fun .def_419 () Bool (and .def_114 .def_418))
(define-fun .def_420 () Bool (and .def_139 .def_419))
(define-fun .def_421 () Bool (and .def_141 .def_420))
(define-fun .def_422 () Bool (and .def_143 .def_421))
(define-fun .def_423 () Bool (and .def_116 .def_422))
(define-fun .def_424 () Bool (and .def_118 .def_423))
(define-fun .def_425 () Bool (and .def_120 .def_424))
(define-fun .def_32 () Int (! |.x{641}| :next |.x{1041}|))
(define-fun .def_191 () Real (* (/ 1 4294967296) (to_real .def_32)))
(define-fun .def_192 () Int (to_int .def_191))
(define-fun .def_200 () Int (* (- 4294967296) .def_192))
(define-fun .def_201 () Int (+ .def_32 .def_200))
(define-fun .def_216 () Bool (<= 10000 .def_201))
(define-fun .def_261 () Bool (or .def_54 .def_216))
(define-fun .def_426 () Bool (and .def_261 .def_425))
(define-fun .def_498 () Bool (or .def_426 .def_497))
(define-fun .def_147 () Bool (= .def_34 |.x{1042}|))
(define-fun .def_499 () Bool (and .def_147 .def_498))
(define-fun .def_42 () Int (! |.x{646}| :next |.x{1046}|))
(define-fun .def_152 () Bool (= .def_42 |.x{1046}|))
(define-fun .def_500 () Bool (and .def_152 .def_499))
(define-fun .def_407 () Bool (or |.x{1042}| |.x{1052}|))
(define-fun .def_352 () Bool (not |.x{1042}|))
(define-fun .def_324 () Real (* (/ 1 4294967296) (to_real |.x{1046}|)))
(define-fun .def_325 () Int (to_int .def_324))
(define-fun .def_326 () Int (* 4294967296 .def_325))
(define-fun .def_320 () Int (* 2 .def_32))
(define-fun .def_321 () Real (* (/ 1 4294967296) (to_real .def_320)))
(define-fun .def_322 () Int (to_int .def_321))
(define-fun .def_323 () Int (* (- 4294967296) .def_322))
(define-fun .def_327 () Int (+ .def_323 .def_326))
(define-fun .def_328 () Int (* (- 1) |.x{1046}|))
(define-fun .def_331 () Int (+ .def_328 .def_327))
(define-fun .def_332 () Int (+ .def_320 .def_331))
(define-fun .def_333 () Bool (= .def_332 0))
(define-fun .def_336 () Bool (not .def_333))
(define-fun .def_390 () Bool (and .def_336 .def_352))
(define-fun .def_389 () Bool (and |.x{1042}| .def_333))
(define-fun .def_391 () Bool (or .def_389 .def_390))
(define-fun .def_217 () Bool (not .def_216))
(define-fun .def_392 () Bool (and .def_217 .def_391))
(define-fun .def_194 () Int (* 4294967296 .def_192))
(define-fun .def_195 () Int (* (- 1) .def_194))
(define-fun .def_196 () Int (+ .def_32 .def_195))
(define-fun .def_198 () Int (+ .def_196 (- 4294967296)))
(define-fun .def_202 () Bool (<= .def_201 2147483647))
(define-fun .def_203 () Int (ite .def_202 .def_196 .def_198))
(define-fun .def_205 () Int (* 4 .def_203))
(define-fun .def_206 () Int (+ .def_46 .def_205))
(define-fun .def_207 () (Array Int Int) (select .def_14 .def_30))
(define-fun .def_341 () Int (select .def_207 .def_206))
(define-fun .def_342 () Bool (= |.x{1046}| .def_341))
(define-fun .def_393 () Bool (and .def_342 .def_392))
(define-fun .def_394 () Bool (or .def_54 .def_393))
(define-fun .def_395 () Bool (and .def_60 .def_394))
(define-fun .def_396 () Bool (and .def_97 .def_395))
(define-fun .def_397 () Bool (and .def_99 .def_396))
(define-fun .def_398 () Bool (and .def_103 .def_397))
(define-fun .def_399 () Bool (and |.loc{9}| .def_398))
(define-fun .def_400 () Bool (and |.loc{11}| .def_399))
(define-fun .def_401 () Bool (and .def_108 .def_400))
(define-fun .def_402 () Bool (and .def_110 .def_401))
(define-fun .def_403 () Bool (and .def_114 .def_402))
(define-fun .def_404 () Bool (and .def_139 .def_403))
(define-fun .def_405 () Bool (and .def_141 .def_404))
(define-fun .def_406 () Bool (and .def_143 .def_405))
(define-fun .def_408 () Bool (and .def_406 .def_407))
(define-fun .def_409 () Bool (and .def_116 .def_408))
(define-fun .def_410 () Bool (and .def_118 .def_409))
(define-fun .def_411 () Bool (and .def_120 .def_410))
(define-fun .def_501 () Bool (or .def_411 .def_500))
(define-fun .def_52 () Int (! |.x{651}| :next |.x{1051}|))
(define-fun .def_157 () Bool (= .def_52 |.x{1051}|))
(define-fun .def_502 () Bool (and .def_157 .def_501))
(define-fun .def_355 () Real (* (/ 1 4294967296) (to_real |.x{1041}|)))
(define-fun .def_356 () Int (to_int .def_355))
(define-fun .def_357 () Int (* 4294967296 .def_356))
(define-fun .def_358 () Int (* (- 1) .def_357))
(define-fun .def_359 () Int (+ |.x{1041}| .def_358))
(define-fun .def_360 () Int (+ (- 4294967296) .def_359))
(define-fun .def_361 () Int (* (- 4294967296) .def_356))
(define-fun .def_362 () Int (+ |.x{1041}| .def_361))
(define-fun .def_363 () Bool (<= .def_362 2147483647))
(define-fun .def_364 () Int (ite .def_363 .def_359 .def_360))
(define-fun .def_365 () Int (* 4 .def_364))
(define-fun .def_366 () Int (+ |.x{1048}| .def_365))
(define-fun .def_367 () (Array Int Int) (select |.x{1032}| |.x{1040}|))
(define-fun .def_368 () Int (select .def_367 .def_366))
(define-fun .def_369 () Bool (= |.x{1051}| .def_368))
(define-fun .def_345 () Real (* (/ 1 4294967296) (to_real |.x{1051}|)))
(define-fun .def_346 () Int (to_int .def_345))
(define-fun .def_347 () Int (* (- 4294967296) .def_346))
(define-fun .def_348 () Int (+ |.x{1051}| .def_347))
(define-fun .def_349 () Bool (= .def_348 0))
(define-fun .def_351 () Bool (not .def_349))
(define-fun .def_353 () Bool (and .def_351 .def_352))
(define-fun .def_350 () Bool (and |.x{1042}| .def_349))
(define-fun .def_354 () Bool (or .def_350 .def_353))
(define-fun .def_370 () Bool (and .def_354 .def_369))
(define-fun .def_337 () Bool (not |.x{807}|))
(define-fun .def_371 () Bool (and .def_337 .def_370))
(define-fun .def_372 () Bool (or |.x{1052}| .def_371))
(define-fun .def_338 () Bool (and .def_336 .def_337))
(define-fun .def_335 () Bool (and .def_333 |.x{807}|))
(define-fun .def_339 () Bool (or .def_335 .def_338))
(define-fun .def_340 () Bool (and .def_217 .def_339))
(define-fun .def_343 () Bool (and .def_340 .def_342))
(define-fun .def_344 () Bool (or .def_54 .def_343))
(define-fun .def_373 () Bool (and .def_344 .def_372))
(define-fun .def_374 () Bool (and .def_60 .def_373))
(define-fun .def_375 () Bool (and .def_97 .def_374))
(define-fun .def_376 () Bool (and .def_99 .def_375))
(define-fun .def_377 () Bool (and .def_103 .def_376))
(define-fun .def_378 () Bool (and |.loc{9}| .def_377))
(define-fun .def_379 () Bool (and |.loc{11}| .def_378))
(define-fun .def_380 () Bool (and .def_108 .def_379))
(define-fun .def_381 () Bool (and .def_110 .def_380))
(define-fun .def_382 () Bool (and .def_114 .def_381))
(define-fun .def_383 () Bool (and .def_139 .def_382))
(define-fun .def_384 () Bool (and .def_141 .def_383))
(define-fun .def_385 () Bool (and .def_143 .def_384))
(define-fun .def_386 () Bool (and .def_116 .def_385))
(define-fun .def_387 () Bool (and .def_118 .def_386))
(define-fun .def_388 () Bool (and .def_120 .def_387))
(define-fun .def_503 () Bool (or .def_388 .def_502))
(define-fun .def_44 () Int (! |.x{647}| :next |.x{1047}|))
(define-fun .def_154 () Bool (= .def_44 |.x{1047}|))
(define-fun .def_145 () Bool (= .def_32 |.x{1041}|))
(define-fun .def_318 () Bool (and .def_145 .def_154))
(define-fun .def_504 () Bool (and .def_318 .def_503))
(define-fun .def_211 () Int (* (- 1) |.x{1041}|))
(define-fun .def_212 () Int (+ .def_32 .def_211))
(define-fun .def_213 () Bool (= .def_212 (- 1)))
(define-fun .def_316 () Bool (or |.x{1052}| .def_213))
(define-fun .def_303 () Bool (and .def_129 .def_241))
(define-fun .def_304 () Bool (and .def_101 .def_303))
(define-fun .def_305 () Bool (and .def_103 .def_304))
(define-fun .def_306 () Bool (and |.loc{11}| .def_305))
(define-fun .def_307 () Bool (and .def_108 .def_306))
(define-fun .def_308 () Bool (and .def_110 .def_307))
(define-fun .def_309 () Bool (and .def_114 .def_308))
(define-fun .def_310 () Bool (and .def_139 .def_309))
(define-fun .def_311 () Bool (and .def_141 .def_310))
(define-fun .def_312 () Bool (and .def_143 .def_311))
(define-fun .def_313 () Bool (and .def_116 .def_312))
(define-fun .def_314 () Bool (and .def_118 .def_313))
(define-fun .def_315 () Bool (and .def_120 .def_314))
(define-fun .def_317 () Bool (and .def_315 .def_316))
(define-fun .def_505 () Bool (or .def_317 .def_504))
(define-fun .def_90 () Bool (= |.x{1041}| 0))
(define-fun .def_291 () Bool (or .def_54 .def_90))
(define-fun .def_283 () Bool (and .def_58 .def_97))
(define-fun .def_284 () Bool (and .def_241 .def_283))
(define-fun .def_285 () Bool (and .def_101 .def_284))
(define-fun .def_286 () Bool (and .def_103 .def_285))
(define-fun .def_287 () Bool (and |.loc{11}| .def_286))
(define-fun .def_288 () Bool (and .def_108 .def_287))
(define-fun .def_289 () Bool (and .def_110 .def_288))
(define-fun .def_290 () Bool (and .def_114 .def_289))
(define-fun .def_292 () Bool (and .def_290 .def_291))
(define-fun .def_293 () Bool (and .def_139 .def_292))
(define-fun .def_294 () Bool (and .def_141 .def_293))
(define-fun .def_295 () Bool (and .def_143 .def_294))
(define-fun .def_296 () Bool (and .def_147 .def_295))
(define-fun .def_297 () Bool (and .def_116 .def_296))
(define-fun .def_298 () Bool (and .def_152 .def_297))
(define-fun .def_299 () Bool (and .def_154 .def_298))
(define-fun .def_300 () Bool (and .def_118 .def_299))
(define-fun .def_301 () Bool (and .def_157 .def_300))
(define-fun .def_302 () Bool (and .def_120 .def_301))
(define-fun .def_506 () Bool (or .def_302 .def_505))
(define-fun .def_263 () Bool (and .def_54 .def_56))
(define-fun .def_264 () Bool (and .def_241 .def_263))
(define-fun .def_265 () Bool (and .def_99 .def_264))
(define-fun .def_266 () Bool (and .def_101 .def_265))
(define-fun .def_267 () Bool (and .def_103 .def_266))
(define-fun .def_268 () Bool (and |.loc{10}| .def_267))
(define-fun .def_269 () Bool (and .def_110 .def_268))
(define-fun .def_270 () Bool (and .def_112 .def_269))
(define-fun .def_271 () Bool (and .def_114 .def_270))
(define-fun .def_272 () Bool (and .def_139 .def_271))
(define-fun .def_273 () Bool (and .def_141 .def_272))
(define-fun .def_274 () Bool (and .def_143 .def_273))
(define-fun .def_275 () Bool (and .def_145 .def_274))
(define-fun .def_276 () Bool (and .def_147 .def_275))
(define-fun .def_277 () Bool (and .def_116 .def_276))
(define-fun .def_278 () Bool (and .def_152 .def_277))
(define-fun .def_279 () Bool (and .def_154 .def_278))
(define-fun .def_280 () Bool (and .def_118 .def_279))
(define-fun .def_281 () Bool (and .def_157 .def_280))
(define-fun .def_282 () Bool (and .def_120 .def_281))
(define-fun .def_507 () Bool (or .def_282 .def_506))
(define-fun .def_242 () Bool (and .def_56 .def_241))
(define-fun .def_243 () Bool (and .def_99 .def_242))
(define-fun .def_244 () Bool (and .def_101 .def_243))
(define-fun .def_245 () Bool (and .def_103 .def_244))
(define-fun .def_246 () Bool (and |.loc{10}| .def_245))
(define-fun .def_247 () Bool (and .def_110 .def_246))
(define-fun .def_248 () Bool (and .def_112 .def_247))
(define-fun .def_249 () Bool (and .def_114 .def_248))
(define-fun .def_250 () Bool (and .def_139 .def_249))
(define-fun .def_251 () Bool (and .def_141 .def_250))
(define-fun .def_252 () Bool (and .def_143 .def_251))
(define-fun .def_253 () Bool (and .def_145 .def_252))
(define-fun .def_254 () Bool (and .def_147 .def_253))
(define-fun .def_255 () Bool (and .def_116 .def_254))
(define-fun .def_256 () Bool (and .def_152 .def_255))
(define-fun .def_257 () Bool (and .def_154 .def_256))
(define-fun .def_258 () Bool (and .def_118 .def_257))
(define-fun .def_259 () Bool (and .def_157 .def_258))
(define-fun .def_260 () Bool (and .def_120 .def_259))
(define-fun .def_262 () Bool (and .def_260 .def_261))
(define-fun .def_508 () Bool (or .def_262 .def_507))
(define-fun .def_36 () Int (! |.x{643}| :next |.x{1043}|))
(define-fun .def_149 () Bool (= .def_36 |.x{1043}|))
(define-fun .def_105 () Bool (= .def_14 |.x{1032}|))
(define-fun .def_240 () Bool (and .def_105 .def_149))
(define-fun .def_509 () Bool (and .def_240 .def_508))
(define-fun .def_208 () (Array Int Int) (store .def_207 .def_206 .def_36))
(define-fun .def_209 () (Array Int (Array Int Int)) (store .def_14 .def_30 .def_208))
(define-fun .def_210 () Bool (= |.x{1032}| .def_209))
(define-fun .def_214 () Bool (and .def_210 .def_213))
(define-fun .def_218 () Bool (and .def_214 .def_217))
(define-fun .def_187 () Int (* (- 1) |.x{1043}|))
(define-fun .def_188 () Int (+ .def_36 .def_187))
(define-fun .def_189 () Bool (= .def_188 (- 2)))
(define-fun .def_219 () Bool (and .def_189 .def_218))
(define-fun .def_220 () Bool (or .def_54 .def_219))
(define-fun .def_221 () Bool (and .def_56 .def_220))
(define-fun .def_222 () Bool (and .def_99 .def_221))
(define-fun .def_223 () Bool (and .def_101 .def_222))
(define-fun .def_224 () Bool (and .def_103 .def_223))
(define-fun .def_225 () Bool (and |.loc{9}| .def_224))
(define-fun .def_226 () Bool (and .def_108 .def_225))
(define-fun .def_227 () Bool (and .def_110 .def_226))
(define-fun .def_228 () Bool (and .def_112 .def_227))
(define-fun .def_229 () Bool (and .def_114 .def_228))
(define-fun .def_230 () Bool (and .def_139 .def_229))
(define-fun .def_231 () Bool (and .def_141 .def_230))
(define-fun .def_232 () Bool (and .def_143 .def_231))
(define-fun .def_233 () Bool (and .def_147 .def_232))
(define-fun .def_234 () Bool (and .def_116 .def_233))
(define-fun .def_235 () Bool (and .def_152 .def_234))
(define-fun .def_236 () Bool (and .def_154 .def_235))
(define-fun .def_237 () Bool (and .def_118 .def_236))
(define-fun .def_238 () Bool (and .def_157 .def_237))
(define-fun .def_239 () Bool (and .def_120 .def_238))
(define-fun .def_510 () Bool (or .def_239 .def_509))
(define-fun .def_182 () Bool (not .def_181))
(define-fun .def_183 () Bool (or .def_54 .def_182))
(define-fun .def_163 () Bool (and .def_105 .def_162))
(define-fun .def_164 () Bool (and |.loc{9}| .def_163))
(define-fun .def_165 () Bool (and |.loc{10}| .def_164))
(define-fun .def_166 () Bool (and .def_110 .def_165))
(define-fun .def_167 () Bool (and .def_112 .def_166))
(define-fun .def_168 () Bool (and .def_114 .def_167))
(define-fun .def_169 () Bool (and .def_139 .def_168))
(define-fun .def_170 () Bool (and .def_141 .def_169))
(define-fun .def_171 () Bool (and .def_143 .def_170))
(define-fun .def_172 () Bool (and .def_145 .def_171))
(define-fun .def_173 () Bool (and .def_147 .def_172))
(define-fun .def_174 () Bool (and .def_149 .def_173))
(define-fun .def_175 () Bool (and .def_116 .def_174))
(define-fun .def_176 () Bool (and .def_152 .def_175))
(define-fun .def_177 () Bool (and .def_154 .def_176))
(define-fun .def_178 () Bool (and .def_118 .def_177))
(define-fun .def_179 () Bool (and .def_157 .def_178))
(define-fun .def_180 () Bool (and .def_120 .def_179))
(define-fun .def_184 () Bool (and .def_180 .def_183))
(define-fun .def_511 () Bool (or .def_184 .def_510))
(define-fun .def_131 () Bool (and .def_54 .def_130))
(define-fun .def_132 () Bool (and .def_103 .def_131))
(define-fun .def_133 () Bool (and .def_105 .def_132))
(define-fun .def_134 () Bool (and |.loc{9}| .def_133))
(define-fun .def_135 () Bool (and |.loc{10}| .def_134))
(define-fun .def_136 () Bool (and .def_110 .def_135))
(define-fun .def_137 () Bool (and .def_112 .def_136))
(define-fun .def_138 () Bool (and .def_114 .def_137))
(define-fun .def_140 () Bool (and .def_138 .def_139))
(define-fun .def_142 () Bool (and .def_140 .def_141))
(define-fun .def_144 () Bool (and .def_142 .def_143))
(define-fun .def_146 () Bool (and .def_144 .def_145))
(define-fun .def_148 () Bool (and .def_146 .def_147))
(define-fun .def_150 () Bool (and .def_148 .def_149))
(define-fun .def_151 () Bool (and .def_116 .def_150))
(define-fun .def_153 () Bool (and .def_151 .def_152))
(define-fun .def_155 () Bool (and .def_153 .def_154))
(define-fun .def_156 () Bool (and .def_118 .def_155))
(define-fun .def_158 () Bool (and .def_156 .def_157))
(define-fun .def_159 () Bool (and .def_120 .def_158))
(define-fun .def_512 () Bool (or .def_159 .def_511))
(define-fun .def_40 () Int (! |.x{645}| :next |.x{1045}|))
(define-fun .def_127 () Bool (= .def_40 |.x{1045}|))
(define-fun .def_125 () Bool (= .def_26 |.x{1038}|))
(define-fun .def_123 () Bool (= .def_18 |.x{1034}|))
(define-fun .def_122 () Bool (= .def_22 |.x{1036}|))
(define-fun .def_124 () Bool (and .def_122 .def_123))
(define-fun .def_126 () Bool (and .def_124 .def_125))
(define-fun .def_128 () Bool (and .def_126 .def_127))
(define-fun .def_513 () Bool (and .def_128 .def_512))
(define-fun .def_87 () (Array Int Int) (store .def_22 |.x{1040}| 40000))
(define-fun .def_88 () Bool (= |.x{1036}| .def_87))
(define-fun .def_82 () Bool (<= |.x{1029}| |.x{1040}|))
(define-fun .def_83 () Bool (not .def_82))
(define-fun .def_80 () Bool (= |.x{1040}| 0))
(define-fun .def_81 () Bool (not .def_80))
(define-fun .def_84 () Bool (and .def_81 .def_83))
(define-fun .def_78 () (Array Int Int) (store |.x{95}| |.x{1040}| 1))
(define-fun .def_79 () Bool (= |.x{1030}| .def_78))
(define-fun .def_85 () Bool (and .def_79 .def_84))
(define-fun .def_89 () Bool (and .def_85 .def_88))
(define-fun .def_91 () Bool (and .def_89 .def_90))
(define-fun .def_76 () Bool (= |.x{1048}| 0))
(define-fun .def_92 () Bool (and .def_76 .def_91))
(define-fun .def_74 () Int (select |.x{95}| |.x{1040}|))
(define-fun .def_75 () Bool (= .def_74 0))
(define-fun .def_93 () Bool (and .def_75 .def_92))
(define-fun .def_73 () Bool (= |.x{1043}| 0))
(define-fun .def_94 () Bool (and .def_73 .def_93))
(define-fun .def_95 () Bool (or |.x{1052}| .def_94))
(define-fun .def_69 () Bool (= |.x{1038}| 0))
(define-fun .def_68 () Bool (= |.x{1034}| 0))
(define-fun .def_70 () Bool (and .def_68 .def_69))
(define-fun .def_65 () (Array Int Int) (store .def_10 0 0))
(define-fun .def_67 () Bool (= .def_65 |.x{95}|))
(define-fun .def_71 () Bool (and .def_67 .def_70))
(define-fun .def_72 () Bool (or .def_54 .def_71))
(define-fun .def_96 () Bool (and .def_72 .def_95))
(define-fun .def_98 () Bool (and .def_96 .def_97))
(define-fun .def_100 () Bool (and .def_98 .def_99))
(define-fun .def_102 () Bool (and .def_100 .def_101))
(define-fun .def_104 () Bool (and .def_102 .def_103))
(define-fun .def_106 () Bool (and .def_104 .def_105))
(define-fun .def_107 () Bool (and |.loc{9}| .def_106))
(define-fun .def_109 () Bool (and .def_107 .def_108))
(define-fun .def_111 () Bool (and .def_109 .def_110))
(define-fun .def_113 () Bool (and .def_111 .def_112))
(define-fun .def_115 () Bool (and .def_113 .def_114))
(define-fun .def_117 () Bool (and .def_115 .def_116))
(define-fun .def_119 () Bool (and .def_117 .def_118))
(define-fun .def_121 () Bool (and .def_119 .def_120))
(define-fun .def_514 () Bool (or .def_121 .def_513))
(define-fun .def_526 () Bool (! (and .def_514 .def_525) :trans true))
(define-fun .def_542 () Bool (and .def_56 .def_99))
(define-fun .def_543 () Bool (and .def_101 .def_542))
(define-fun .def_544 () Bool (and .def_62 .def_543))
(define-fun .def_545 () Bool (and .def_54 .def_544))
(define-fun .def_546 () Bool (! (not .def_545) :invar-property 0))
(assert true)
